data;

param num_top:=6;

#nodes and edges of the physical network
param n := 10;

set E := (1,2) (1,3) (1,7) (2,4) (2,7) (3,5) (4,8) (5,6) (5,7) (6,7) (6,9) (7,8) (7,9) (8,10) (9,10) ;

#nodes and edges of the virtual networks
set Nl[1] := 9 7 3 1 2 ;
set Nl[2] := 1 3 9 4 10 ;
set Nl[3] := 2 8 4 3 1 ;
set Nl[4] := 3 1 10 4 5 ;
set Nl[5] := 7 8 10 3 1 ;
set Nl[6] := 3 9 10 8 2 ;

set El[1] := (7,9) (3,7) (1,3) (1,2) (2,9) (2,7) (1,7) (3,9) (2,3) (1,9) ;
set El[2] := (1,3) (3,9) (4,9) (4,10) (1,10) (3,10) (1,4) (3,4) (9,10) (1,9) ;
set El[3] := (2,8) (4,8) (3,4) (1,3) (1,2) (2,4) (1,4) (2,3) (3,8) (1,8) ;
set El[4] := (1,3) (1,10) (4,10) (4,5) (3,5) (5,10) (3,10) (1,5) (1,4) (3,4) ;
set El[5] := (7,8) (8,10) (3,10) (1,3) (1,7) (7,10) (3,7) (1,8) (1,10) (3,8) ;
set El[6] := (3,9) (9,10) (8,10) (2,8) (2,3) (2,10) (3,8) (2,9) (8,9) (3,10) ;
